p cnf 476 1592
c Exactly one constraints for square 15,0 (2 variables)
448 463 0
-463 -448 0
c Exactly one constraints for square 14,0 (3 variables)
417 433 448 0
-433 -417 0
-448 -417 0
-448 -433 0
c Exactly one constraints for square 13,0 (3 variables)
386 402 417 0
-402 -386 0
-417 -386 0
-417 -402 0
c Exactly one constraints for square 12,0 (3 variables)
355 371 386 0
-371 -355 0
-386 -355 0
-386 -371 0
c Exactly one constraints for square 11,0 (3 variables)
324 340 355 0
-340 -324 0
-355 -324 0
-355 -340 0
c Exactly one constraints for square 10,0 (3 variables)
293 309 324 0
-309 -293 0
-324 -293 0
-324 -309 0
c Exactly one constraints for square 9,0 (3 variables)
262 278 293 0
-278 -262 0
-293 -262 0
-293 -278 0
c Exactly one constraints for square 8,0 (3 variables)
231 247 262 0
-247 -231 0
-262 -231 0
-262 -247 0
c Exactly one constraints for square 7,0 (3 variables)
200 216 231 0
-216 -200 0
-231 -200 0
-231 -216 0
c Exactly one constraints for square 6,0 (3 variables)
169 185 200 0
-185 -169 0
-200 -169 0
-200 -185 0
c Exactly one constraints for square 5,0 (3 variables)
138 154 169 0
-154 -138 0
-169 -138 0
-169 -154 0
c Exactly one constraints for square 4,0 (3 variables)
107 123 138 0
-123 -107 0
-138 -107 0
-138 -123 0
c Exactly one constraints for square 3,0 (3 variables)
76 92 107 0
-92 -76 0
-107 -76 0
-107 -92 0
c Exactly one constraints for square 2,0 (3 variables)
45 61 76 0
-61 -45 0
-76 -45 0
-76 -61 0
c Exactly one constraints for square 1,0 (2 variables)
30 45 0
-45 -30 0
c Exactly one constraints for square 15,1 (3 variables)
449 464 463 0
-464 -449 0
-463 -449 0
-463 -464 0
c Exactly one constraints for square 14,1 (4 variables)
418 434 449 433 0
-434 -418 0
-449 -418 0
-449 -434 0
-433 -418 0
-433 -434 0
-433 -449 0
c Exactly one constraints for square 13,1 (4 variables)
387 403 418 402 0
-403 -387 0
-418 -387 0
-418 -403 0
-402 -387 0
-402 -403 0
-402 -418 0
c Exactly one constraints for square 12,1 (4 variables)
356 372 387 371 0
-372 -356 0
-387 -356 0
-387 -372 0
-371 -356 0
-371 -372 0
-371 -387 0
c Exactly one constraints for square 11,1 (4 variables)
325 341 356 340 0
-341 -325 0
-356 -325 0
-356 -341 0
-340 -325 0
-340 -341 0
-340 -356 0
c Exactly one constraints for square 10,1 (4 variables)
294 310 325 309 0
-310 -294 0
-325 -294 0
-325 -310 0
-309 -294 0
-309 -310 0
-309 -325 0
c Exactly one constraints for square 9,1 (4 variables)
263 279 294 278 0
-279 -263 0
-294 -263 0
-294 -279 0
-278 -263 0
-278 -279 0
-278 -294 0
c Exactly one constraints for square 8,1 (4 variables)
232 248 263 247 0
-248 -232 0
-263 -232 0
-263 -248 0
-247 -232 0
-247 -248 0
-247 -263 0
c Exactly one constraints for square 7,1 (4 variables)
201 217 232 216 0
-217 -201 0
-232 -201 0
-232 -217 0
-216 -201 0
-216 -217 0
-216 -232 0
c Exactly one constraints for square 6,1 (4 variables)
170 186 201 185 0
-186 -170 0
-201 -170 0
-201 -186 0
-185 -170 0
-185 -186 0
-185 -201 0
c Exactly one constraints for square 5,1 (4 variables)
139 155 170 154 0
-155 -139 0
-170 -139 0
-170 -155 0
-154 -139 0
-154 -155 0
-154 -170 0
c Exactly one constraints for square 4,1 (4 variables)
108 124 139 123 0
-124 -108 0
-139 -108 0
-139 -124 0
-123 -108 0
-123 -124 0
-123 -139 0
c Exactly one constraints for square 3,1 (4 variables)
77 93 108 92 0
-93 -77 0
-108 -77 0
-108 -93 0
-92 -77 0
-92 -93 0
-92 -108 0
c Exactly one constraints for square 2,1 (4 variables)
46 62 77 61 0
-62 -46 0
-77 -46 0
-77 -62 0
-61 -46 0
-61 -62 0
-61 -77 0
c Exactly one constraints for square 1,1 (4 variables)
15 31 46 30 0
-31 -15 0
-46 -15 0
-46 -31 0
-30 -15 0
-30 -31 0
-30 -46 0
c Exactly one constraints for square 0,1 (2 variables)
1 15 0
-15 -1 0
c Exactly one constraints for square 15,2 (3 variables)
450 465 464 0
-465 -450 0
-464 -450 0
-464 -465 0
c Exactly one constraints for square 14,2 (4 variables)
419 435 450 434 0
-435 -419 0
-450 -419 0
-450 -435 0
-434 -419 0
-434 -435 0
-434 -450 0
c Exactly one constraints for square 13,2 (4 variables)
388 404 419 403 0
-404 -388 0
-419 -388 0
-419 -404 0
-403 -388 0
-403 -404 0
-403 -419 0
c Exactly one constraints for square 12,2 (4 variables)
357 373 388 372 0
-373 -357 0
-388 -357 0
-388 -373 0
-372 -357 0
-372 -373 0
-372 -388 0
c Exactly one constraints for square 11,2 (4 variables)
326 342 357 341 0
-342 -326 0
-357 -326 0
-357 -342 0
-341 -326 0
-341 -342 0
-341 -357 0
c Exactly one constraints for square 10,2 (4 variables)
295 311 326 310 0
-311 -295 0
-326 -295 0
-326 -311 0
-310 -295 0
-310 -311 0
-310 -326 0
c Exactly one constraints for square 9,2 (4 variables)
264 280 295 279 0
-280 -264 0
-295 -264 0
-295 -280 0
-279 -264 0
-279 -280 0
-279 -295 0
c Exactly one constraints for square 8,2 (4 variables)
233 249 264 248 0
-249 -233 0
-264 -233 0
-264 -249 0
-248 -233 0
-248 -249 0
-248 -264 0
c Exactly one constraints for square 7,2 (4 variables)
202 218 233 217 0
-218 -202 0
-233 -202 0
-233 -218 0
-217 -202 0
-217 -218 0
-217 -233 0
c Exactly one constraints for square 6,2 (4 variables)
171 187 202 186 0
-187 -171 0
-202 -171 0
-202 -187 0
-186 -171 0
-186 -187 0
-186 -202 0
c Exactly one constraints for square 5,2 (4 variables)
140 156 171 155 0
-156 -140 0
-171 -140 0
-171 -156 0
-155 -140 0
-155 -156 0
-155 -171 0
c Exactly one constraints for square 4,2 (4 variables)
109 125 140 124 0
-125 -109 0
-140 -109 0
-140 -125 0
-124 -109 0
-124 -125 0
-124 -140 0
c Exactly one constraints for square 3,2 (4 variables)
78 94 109 93 0
-94 -78 0
-109 -78 0
-109 -94 0
-93 -78 0
-93 -94 0
-93 -109 0
c Exactly one constraints for square 2,2 (4 variables)
47 63 78 62 0
-63 -47 0
-78 -47 0
-78 -63 0
-62 -47 0
-62 -63 0
-62 -78 0
c Exactly one constraints for square 1,2 (4 variables)
16 32 47 31 0
-32 -16 0
-47 -16 0
-47 -32 0
-31 -16 0
-31 -32 0
-31 -47 0
c Exactly one constraints for square 0,2 (3 variables)
2 16 1 0
-16 -2 0
-1 -2 0
-1 -16 0
c Exactly one constraints for square 15,3 (3 variables)
451 466 465 0
-466 -451 0
-465 -451 0
-465 -466 0
c Exactly one constraints for square 14,3 (4 variables)
420 436 451 435 0
-436 -420 0
-451 -420 0
-451 -436 0
-435 -420 0
-435 -436 0
-435 -451 0
c Exactly one constraints for square 13,3 (4 variables)
389 405 420 404 0
-405 -389 0
-420 -389 0
-420 -405 0
-404 -389 0
-404 -405 0
-404 -420 0
c Exactly one constraints for square 12,3 (4 variables)
358 374 389 373 0
-374 -358 0
-389 -358 0
-389 -374 0
-373 -358 0
-373 -374 0
-373 -389 0
c Exactly one constraints for square 11,3 (4 variables)
327 343 358 342 0
-343 -327 0
-358 -327 0
-358 -343 0
-342 -327 0
-342 -343 0
-342 -358 0
c Exactly one constraints for square 10,3 (4 variables)
296 312 327 311 0
-312 -296 0
-327 -296 0
-327 -312 0
-311 -296 0
-311 -312 0
-311 -327 0
c Exactly one constraints for square 9,3 (4 variables)
265 281 296 280 0
-281 -265 0
-296 -265 0
-296 -281 0
-280 -265 0
-280 -281 0
-280 -296 0
c Exactly one constraints for square 8,3 (4 variables)
234 250 265 249 0
-250 -234 0
-265 -234 0
-265 -250 0
-249 -234 0
-249 -250 0
-249 -265 0
c Exactly one constraints for square 7,3 (4 variables)
203 219 234 218 0
-219 -203 0
-234 -203 0
-234 -219 0
-218 -203 0
-218 -219 0
-218 -234 0
c Exactly one constraints for square 6,3 (4 variables)
172 188 203 187 0
-188 -172 0
-203 -172 0
-203 -188 0
-187 -172 0
-187 -188 0
-187 -203 0
c Exactly one constraints for square 5,3 (4 variables)
141 157 172 156 0
-157 -141 0
-172 -141 0
-172 -157 0
-156 -141 0
-156 -157 0
-156 -172 0
c Exactly one constraints for square 4,3 (4 variables)
110 126 141 125 0
-126 -110 0
-141 -110 0
-141 -126 0
-125 -110 0
-125 -126 0
-125 -141 0
c Exactly one constraints for square 3,3 (4 variables)
79 95 110 94 0
-95 -79 0
-110 -79 0
-110 -95 0
-94 -79 0
-94 -95 0
-94 -110 0
c Exactly one constraints for square 2,3 (4 variables)
48 64 79 63 0
-64 -48 0
-79 -48 0
-79 -64 0
-63 -48 0
-63 -64 0
-63 -79 0
c Exactly one constraints for square 1,3 (4 variables)
17 33 48 32 0
-33 -17 0
-48 -17 0
-48 -33 0
-32 -17 0
-32 -33 0
-32 -48 0
c Exactly one constraints for square 0,3 (3 variables)
3 17 2 0
-17 -3 0
-2 -3 0
-2 -17 0
c Exactly one constraints for square 15,4 (3 variables)
452 467 466 0
-467 -452 0
-466 -452 0
-466 -467 0
c Exactly one constraints for square 14,4 (4 variables)
421 437 452 436 0
-437 -421 0
-452 -421 0
-452 -437 0
-436 -421 0
-436 -437 0
-436 -452 0
c Exactly one constraints for square 13,4 (4 variables)
390 406 421 405 0
-406 -390 0
-421 -390 0
-421 -406 0
-405 -390 0
-405 -406 0
-405 -421 0
c Exactly one constraints for square 12,4 (4 variables)
359 375 390 374 0
-375 -359 0
-390 -359 0
-390 -375 0
-374 -359 0
-374 -375 0
-374 -390 0
c Exactly one constraints for square 11,4 (4 variables)
328 344 359 343 0
-344 -328 0
-359 -328 0
-359 -344 0
-343 -328 0
-343 -344 0
-343 -359 0
c Exactly one constraints for square 10,4 (4 variables)
297 313 328 312 0
-313 -297 0
-328 -297 0
-328 -313 0
-312 -297 0
-312 -313 0
-312 -328 0
c Exactly one constraints for square 9,4 (4 variables)
266 282 297 281 0
-282 -266 0
-297 -266 0
-297 -282 0
-281 -266 0
-281 -282 0
-281 -297 0
c Exactly one constraints for square 8,4 (4 variables)
235 251 266 250 0
-251 -235 0
-266 -235 0
-266 -251 0
-250 -235 0
-250 -251 0
-250 -266 0
c Exactly one constraints for square 7,4 (4 variables)
204 220 235 219 0
-220 -204 0
-235 -204 0
-235 -220 0
-219 -204 0
-219 -220 0
-219 -235 0
c Exactly one constraints for square 6,4 (4 variables)
173 189 204 188 0
-189 -173 0
-204 -173 0
-204 -189 0
-188 -173 0
-188 -189 0
-188 -204 0
c Exactly one constraints for square 5,4 (4 variables)
142 158 173 157 0
-158 -142 0
-173 -142 0
-173 -158 0
-157 -142 0
-157 -158 0
-157 -173 0
c Exactly one constraints for square 4,4 (4 variables)
111 127 142 126 0
-127 -111 0
-142 -111 0
-142 -127 0
-126 -111 0
-126 -127 0
-126 -142 0
c Exactly one constraints for square 3,4 (4 variables)
80 96 111 95 0
-96 -80 0
-111 -80 0
-111 -96 0
-95 -80 0
-95 -96 0
-95 -111 0
c Exactly one constraints for square 2,4 (4 variables)
49 65 80 64 0
-65 -49 0
-80 -49 0
-80 -65 0
-64 -49 0
-64 -65 0
-64 -80 0
c Exactly one constraints for square 1,4 (4 variables)
18 34 49 33 0
-34 -18 0
-49 -18 0
-49 -34 0
-33 -18 0
-33 -34 0
-33 -49 0
c Exactly one constraints for square 0,4 (3 variables)
4 18 3 0
-18 -4 0
-3 -4 0
-3 -18 0
c Exactly one constraints for square 15,5 (3 variables)
453 468 467 0
-468 -453 0
-467 -453 0
-467 -468 0
c Exactly one constraints for square 14,5 (4 variables)
422 438 453 437 0
-438 -422 0
-453 -422 0
-453 -438 0
-437 -422 0
-437 -438 0
-437 -453 0
c Exactly one constraints for square 13,5 (4 variables)
391 407 422 406 0
-407 -391 0
-422 -391 0
-422 -407 0
-406 -391 0
-406 -407 0
-406 -422 0
c Exactly one constraints for square 12,5 (4 variables)
360 376 391 375 0
-376 -360 0
-391 -360 0
-391 -376 0
-375 -360 0
-375 -376 0
-375 -391 0
c Exactly one constraints for square 11,5 (4 variables)
329 345 360 344 0
-345 -329 0
-360 -329 0
-360 -345 0
-344 -329 0
-344 -345 0
-344 -360 0
c Exactly one constraints for square 10,5 (4 variables)
298 314 329 313 0
-314 -298 0
-329 -298 0
-329 -314 0
-313 -298 0
-313 -314 0
-313 -329 0
c Exactly one constraints for square 9,5 (4 variables)
267 283 298 282 0
-283 -267 0
-298 -267 0
-298 -283 0
-282 -267 0
-282 -283 0
-282 -298 0
c Exactly one constraints for square 8,5 (4 variables)
236 252 267 251 0
-252 -236 0
-267 -236 0
-267 -252 0
-251 -236 0
-251 -252 0
-251 -267 0
c Exactly one constraints for square 7,5 (4 variables)
205 221 236 220 0
-221 -205 0
-236 -205 0
-236 -221 0
-220 -205 0
-220 -221 0
-220 -236 0
c Exactly one constraints for square 6,5 (4 variables)
174 190 205 189 0
-190 -174 0
-205 -174 0
-205 -190 0
-189 -174 0
-189 -190 0
-189 -205 0
c Exactly one constraints for square 5,5 (4 variables)
143 159 174 158 0
-159 -143 0
-174 -143 0
-174 -159 0
-158 -143 0
-158 -159 0
-158 -174 0
c Exactly one constraints for square 4,5 (4 variables)
112 128 143 127 0
-128 -112 0
-143 -112 0
-143 -128 0
-127 -112 0
-127 -128 0
-127 -143 0
c Exactly one constraints for square 3,5 (4 variables)
81 97 112 96 0
-97 -81 0
-112 -81 0
-112 -97 0
-96 -81 0
-96 -97 0
-96 -112 0
c Exactly one constraints for square 2,5 (4 variables)
50 66 81 65 0
-66 -50 0
-81 -50 0
-81 -66 0
-65 -50 0
-65 -66 0
-65 -81 0
c Exactly one constraints for square 1,5 (4 variables)
19 35 50 34 0
-35 -19 0
-50 -19 0
-50 -35 0
-34 -19 0
-34 -35 0
-34 -50 0
c Exactly one constraints for square 0,5 (3 variables)
5 19 4 0
-19 -5 0
-4 -5 0
-4 -19 0
c Exactly one constraints for square 15,6 (3 variables)
454 469 468 0
-469 -454 0
-468 -454 0
-468 -469 0
c Exactly one constraints for square 14,6 (4 variables)
423 439 454 438 0
-439 -423 0
-454 -423 0
-454 -439 0
-438 -423 0
-438 -439 0
-438 -454 0
c Exactly one constraints for square 13,6 (4 variables)
392 408 423 407 0
-408 -392 0
-423 -392 0
-423 -408 0
-407 -392 0
-407 -408 0
-407 -423 0
c Exactly one constraints for square 12,6 (4 variables)
361 377 392 376 0
-377 -361 0
-392 -361 0
-392 -377 0
-376 -361 0
-376 -377 0
-376 -392 0
c Exactly one constraints for square 11,6 (4 variables)
330 346 361 345 0
-346 -330 0
-361 -330 0
-361 -346 0
-345 -330 0
-345 -346 0
-345 -361 0
c Exactly one constraints for square 10,6 (4 variables)
299 315 330 314 0
-315 -299 0
-330 -299 0
-330 -315 0
-314 -299 0
-314 -315 0
-314 -330 0
c Exactly one constraints for square 9,6 (4 variables)
268 284 299 283 0
-284 -268 0
-299 -268 0
-299 -284 0
-283 -268 0
-283 -284 0
-283 -299 0
c Exactly one constraints for square 8,6 (4 variables)
237 253 268 252 0
-253 -237 0
-268 -237 0
-268 -253 0
-252 -237 0
-252 -253 0
-252 -268 0
c Exactly one constraints for square 7,6 (4 variables)
206 222 237 221 0
-222 -206 0
-237 -206 0
-237 -222 0
-221 -206 0
-221 -222 0
-221 -237 0
c Exactly one constraints for square 6,6 (4 variables)
175 191 206 190 0
-191 -175 0
-206 -175 0
-206 -191 0
-190 -175 0
-190 -191 0
-190 -206 0
c Exactly one constraints for square 5,6 (4 variables)
144 160 175 159 0
-160 -144 0
-175 -144 0
-175 -160 0
-159 -144 0
-159 -160 0
-159 -175 0
c Exactly one constraints for square 4,6 (4 variables)
113 129 144 128 0
-129 -113 0
-144 -113 0
-144 -129 0
-128 -113 0
-128 -129 0
-128 -144 0
c Exactly one constraints for square 3,6 (4 variables)
82 98 113 97 0
-98 -82 0
-113 -82 0
-113 -98 0
-97 -82 0
-97 -98 0
-97 -113 0
c Exactly one constraints for square 2,6 (4 variables)
51 67 82 66 0
-67 -51 0
-82 -51 0
-82 -67 0
-66 -51 0
-66 -67 0
-66 -82 0
c Exactly one constraints for square 1,6 (4 variables)
20 36 51 35 0
-36 -20 0
-51 -20 0
-51 -36 0
-35 -20 0
-35 -36 0
-35 -51 0
c Exactly one constraints for square 0,6 (3 variables)
6 20 5 0
-20 -6 0
-5 -6 0
-5 -20 0
c Exactly one constraints for square 15,7 (3 variables)
455 470 469 0
-470 -455 0
-469 -455 0
-469 -470 0
c Exactly one constraints for square 14,7 (4 variables)
424 440 455 439 0
-440 -424 0
-455 -424 0
-455 -440 0
-439 -424 0
-439 -440 0
-439 -455 0
c Exactly one constraints for square 13,7 (4 variables)
393 409 424 408 0
-409 -393 0
-424 -393 0
-424 -409 0
-408 -393 0
-408 -409 0
-408 -424 0
c Exactly one constraints for square 12,7 (4 variables)
362 378 393 377 0
-378 -362 0
-393 -362 0
-393 -378 0
-377 -362 0
-377 -378 0
-377 -393 0
c Exactly one constraints for square 11,7 (4 variables)
331 347 362 346 0
-347 -331 0
-362 -331 0
-362 -347 0
-346 -331 0
-346 -347 0
-346 -362 0
c Exactly one constraints for square 10,7 (4 variables)
300 316 331 315 0
-316 -300 0
-331 -300 0
-331 -316 0
-315 -300 0
-315 -316 0
-315 -331 0
c Exactly one constraints for square 9,7 (4 variables)
269 285 300 284 0
-285 -269 0
-300 -269 0
-300 -285 0
-284 -269 0
-284 -285 0
-284 -300 0
c Exactly one constraints for square 8,7 (4 variables)
238 254 269 253 0
-254 -238 0
-269 -238 0
-269 -254 0
-253 -238 0
-253 -254 0
-253 -269 0
c Exactly one constraints for square 7,7 (4 variables)
207 223 238 222 0
-223 -207 0
-238 -207 0
-238 -223 0
-222 -207 0
-222 -223 0
-222 -238 0
c Exactly one constraints for square 6,7 (4 variables)
176 192 207 191 0
-192 -176 0
-207 -176 0
-207 -192 0
-191 -176 0
-191 -192 0
-191 -207 0
c Exactly one constraints for square 5,7 (4 variables)
145 161 176 160 0
-161 -145 0
-176 -145 0
-176 -161 0
-160 -145 0
-160 -161 0
-160 -176 0
c Exactly one constraints for square 4,7 (4 variables)
114 130 145 129 0
-130 -114 0
-145 -114 0
-145 -130 0
-129 -114 0
-129 -130 0
-129 -145 0
c Exactly one constraints for square 3,7 (4 variables)
83 99 114 98 0
-99 -83 0
-114 -83 0
-114 -99 0
-98 -83 0
-98 -99 0
-98 -114 0
c Exactly one constraints for square 2,7 (4 variables)
52 68 83 67 0
-68 -52 0
-83 -52 0
-83 -68 0
-67 -52 0
-67 -68 0
-67 -83 0
c Exactly one constraints for square 1,7 (4 variables)
21 37 52 36 0
-37 -21 0
-52 -21 0
-52 -37 0
-36 -21 0
-36 -37 0
-36 -52 0
c Exactly one constraints for square 0,7 (3 variables)
7 21 6 0
-21 -7 0
-6 -7 0
-6 -21 0
c Exactly one constraints for square 15,8 (3 variables)
456 471 470 0
-471 -456 0
-470 -456 0
-470 -471 0
c Exactly one constraints for square 14,8 (4 variables)
425 441 456 440 0
-441 -425 0
-456 -425 0
-456 -441 0
-440 -425 0
-440 -441 0
-440 -456 0
c Exactly one constraints for square 13,8 (4 variables)
394 410 425 409 0
-410 -394 0
-425 -394 0
-425 -410 0
-409 -394 0
-409 -410 0
-409 -425 0
c Exactly one constraints for square 12,8 (4 variables)
363 379 394 378 0
-379 -363 0
-394 -363 0
-394 -379 0
-378 -363 0
-378 -379 0
-378 -394 0
c Exactly one constraints for square 11,8 (4 variables)
332 348 363 347 0
-348 -332 0
-363 -332 0
-363 -348 0
-347 -332 0
-347 -348 0
-347 -363 0
c Exactly one constraints for square 10,8 (4 variables)
301 317 332 316 0
-317 -301 0
-332 -301 0
-332 -317 0
-316 -301 0
-316 -317 0
-316 -332 0
c Exactly one constraints for square 9,8 (4 variables)
270 286 301 285 0
-286 -270 0
-301 -270 0
-301 -286 0
-285 -270 0
-285 -286 0
-285 -301 0
c Exactly one constraints for square 8,8 (4 variables)
239 255 270 254 0
-255 -239 0
-270 -239 0
-270 -255 0
-254 -239 0
-254 -255 0
-254 -270 0
c Exactly one constraints for square 7,8 (4 variables)
208 224 239 223 0
-224 -208 0
-239 -208 0
-239 -224 0
-223 -208 0
-223 -224 0
-223 -239 0
c Exactly one constraints for square 6,8 (4 variables)
177 193 208 192 0
-193 -177 0
-208 -177 0
-208 -193 0
-192 -177 0
-192 -193 0
-192 -208 0
c Exactly one constraints for square 5,8 (4 variables)
146 162 177 161 0
-162 -146 0
-177 -146 0
-177 -162 0
-161 -146 0
-161 -162 0
-161 -177 0
c Exactly one constraints for square 4,8 (4 variables)
115 131 146 130 0
-131 -115 0
-146 -115 0
-146 -131 0
-130 -115 0
-130 -131 0
-130 -146 0
c Exactly one constraints for square 3,8 (4 variables)
84 100 115 99 0
-100 -84 0
-115 -84 0
-115 -100 0
-99 -84 0
-99 -100 0
-99 -115 0
c Exactly one constraints for square 2,8 (4 variables)
53 69 84 68 0
-69 -53 0
-84 -53 0
-84 -69 0
-68 -53 0
-68 -69 0
-68 -84 0
c Exactly one constraints for square 1,8 (4 variables)
22 38 53 37 0
-38 -22 0
-53 -22 0
-53 -38 0
-37 -22 0
-37 -38 0
-37 -53 0
c Exactly one constraints for square 0,8 (3 variables)
8 22 7 0
-22 -8 0
-7 -8 0
-7 -22 0
c Exactly one constraints for square 15,9 (3 variables)
457 472 471 0
-472 -457 0
-471 -457 0
-471 -472 0
c Exactly one constraints for square 14,9 (4 variables)
426 442 457 441 0
-442 -426 0
-457 -426 0
-457 -442 0
-441 -426 0
-441 -442 0
-441 -457 0
c Exactly one constraints for square 13,9 (4 variables)
395 411 426 410 0
-411 -395 0
-426 -395 0
-426 -411 0
-410 -395 0
-410 -411 0
-410 -426 0
c Exactly one constraints for square 12,9 (4 variables)
364 380 395 379 0
-380 -364 0
-395 -364 0
-395 -380 0
-379 -364 0
-379 -380 0
-379 -395 0
c Exactly one constraints for square 11,9 (4 variables)
333 349 364 348 0
-349 -333 0
-364 -333 0
-364 -349 0
-348 -333 0
-348 -349 0
-348 -364 0
c Exactly one constraints for square 10,9 (4 variables)
302 318 333 317 0
-318 -302 0
-333 -302 0
-333 -318 0
-317 -302 0
-317 -318 0
-317 -333 0
c Exactly one constraints for square 9,9 (4 variables)
271 287 302 286 0
-287 -271 0
-302 -271 0
-302 -287 0
-286 -271 0
-286 -287 0
-286 -302 0
c Exactly one constraints for square 8,9 (4 variables)
240 256 271 255 0
-256 -240 0
-271 -240 0
-271 -256 0
-255 -240 0
-255 -256 0
-255 -271 0
c Exactly one constraints for square 7,9 (4 variables)
209 225 240 224 0
-225 -209 0
-240 -209 0
-240 -225 0
-224 -209 0
-224 -225 0
-224 -240 0
c Exactly one constraints for square 6,9 (4 variables)
178 194 209 193 0
-194 -178 0
-209 -178 0
-209 -194 0
-193 -178 0
-193 -194 0
-193 -209 0
c Exactly one constraints for square 5,9 (4 variables)
147 163 178 162 0
-163 -147 0
-178 -147 0
-178 -163 0
-162 -147 0
-162 -163 0
-162 -178 0
c Exactly one constraints for square 4,9 (4 variables)
116 132 147 131 0
-132 -116 0
-147 -116 0
-147 -132 0
-131 -116 0
-131 -132 0
-131 -147 0
c Exactly one constraints for square 3,9 (4 variables)
85 101 116 100 0
-101 -85 0
-116 -85 0
-116 -101 0
-100 -85 0
-100 -101 0
-100 -116 0
c Exactly one constraints for square 2,9 (4 variables)
54 70 85 69 0
-70 -54 0
-85 -54 0
-85 -70 0
-69 -54 0
-69 -70 0
-69 -85 0
c Exactly one constraints for square 1,9 (4 variables)
23 39 54 38 0
-39 -23 0
-54 -23 0
-54 -39 0
-38 -23 0
-38 -39 0
-38 -54 0
c Exactly one constraints for square 0,9 (3 variables)
9 23 8 0
-23 -9 0
-8 -9 0
-8 -23 0
c Exactly one constraints for square 15,10 (3 variables)
458 473 472 0
-473 -458 0
-472 -458 0
-472 -473 0
c Exactly one constraints for square 14,10 (4 variables)
427 443 458 442 0
-443 -427 0
-458 -427 0
-458 -443 0
-442 -427 0
-442 -443 0
-442 -458 0
c Exactly one constraints for square 13,10 (4 variables)
396 412 427 411 0
-412 -396 0
-427 -396 0
-427 -412 0
-411 -396 0
-411 -412 0
-411 -427 0
c Exactly one constraints for square 12,10 (4 variables)
365 381 396 380 0
-381 -365 0
-396 -365 0
-396 -381 0
-380 -365 0
-380 -381 0
-380 -396 0
c Exactly one constraints for square 11,10 (4 variables)
334 350 365 349 0
-350 -334 0
-365 -334 0
-365 -350 0
-349 -334 0
-349 -350 0
-349 -365 0
c Exactly one constraints for square 10,10 (4 variables)
303 319 334 318 0
-319 -303 0
-334 -303 0
-334 -319 0
-318 -303 0
-318 -319 0
-318 -334 0
c Exactly one constraints for square 9,10 (4 variables)
272 288 303 287 0
-288 -272 0
-303 -272 0
-303 -288 0
-287 -272 0
-287 -288 0
-287 -303 0
c Exactly one constraints for square 8,10 (4 variables)
241 257 272 256 0
-257 -241 0
-272 -241 0
-272 -257 0
-256 -241 0
-256 -257 0
-256 -272 0
c Exactly one constraints for square 7,10 (4 variables)
210 226 241 225 0
-226 -210 0
-241 -210 0
-241 -226 0
-225 -210 0
-225 -226 0
-225 -241 0
c Exactly one constraints for square 6,10 (4 variables)
179 195 210 194 0
-195 -179 0
-210 -179 0
-210 -195 0
-194 -179 0
-194 -195 0
-194 -210 0
c Exactly one constraints for square 5,10 (4 variables)
148 164 179 163 0
-164 -148 0
-179 -148 0
-179 -164 0
-163 -148 0
-163 -164 0
-163 -179 0
c Exactly one constraints for square 4,10 (4 variables)
117 133 148 132 0
-133 -117 0
-148 -117 0
-148 -133 0
-132 -117 0
-132 -133 0
-132 -148 0
c Exactly one constraints for square 3,10 (4 variables)
86 102 117 101 0
-102 -86 0
-117 -86 0
-117 -102 0
-101 -86 0
-101 -102 0
-101 -117 0
c Exactly one constraints for square 2,10 (4 variables)
55 71 86 70 0
-71 -55 0
-86 -55 0
-86 -71 0
-70 -55 0
-70 -71 0
-70 -86 0
c Exactly one constraints for square 1,10 (4 variables)
24 40 55 39 0
-40 -24 0
-55 -24 0
-55 -40 0
-39 -24 0
-39 -40 0
-39 -55 0
c Exactly one constraints for square 0,10 (3 variables)
10 24 9 0
-24 -10 0
-9 -10 0
-9 -24 0
c Exactly one constraints for square 15,11 (3 variables)
459 474 473 0
-474 -459 0
-473 -459 0
-473 -474 0
c Exactly one constraints for square 14,11 (4 variables)
428 444 459 443 0
-444 -428 0
-459 -428 0
-459 -444 0
-443 -428 0
-443 -444 0
-443 -459 0
c Exactly one constraints for square 13,11 (4 variables)
397 413 428 412 0
-413 -397 0
-428 -397 0
-428 -413 0
-412 -397 0
-412 -413 0
-412 -428 0
c Exactly one constraints for square 12,11 (4 variables)
366 382 397 381 0
-382 -366 0
-397 -366 0
-397 -382 0
-381 -366 0
-381 -382 0
-381 -397 0
c Exactly one constraints for square 11,11 (4 variables)
335 351 366 350 0
-351 -335 0
-366 -335 0
-366 -351 0
-350 -335 0
-350 -351 0
-350 -366 0
c Exactly one constraints for square 10,11 (4 variables)
304 320 335 319 0
-320 -304 0
-335 -304 0
-335 -320 0
-319 -304 0
-319 -320 0
-319 -335 0
c Exactly one constraints for square 9,11 (4 variables)
273 289 304 288 0
-289 -273 0
-304 -273 0
-304 -289 0
-288 -273 0
-288 -289 0
-288 -304 0
c Exactly one constraints for square 8,11 (4 variables)
242 258 273 257 0
-258 -242 0
-273 -242 0
-273 -258 0
-257 -242 0
-257 -258 0
-257 -273 0
c Exactly one constraints for square 7,11 (4 variables)
211 227 242 226 0
-227 -211 0
-242 -211 0
-242 -227 0
-226 -211 0
-226 -227 0
-226 -242 0
c Exactly one constraints for square 6,11 (4 variables)
180 196 211 195 0
-196 -180 0
-211 -180 0
-211 -196 0
-195 -180 0
-195 -196 0
-195 -211 0
c Exactly one constraints for square 5,11 (4 variables)
149 165 180 164 0
-165 -149 0
-180 -149 0
-180 -165 0
-164 -149 0
-164 -165 0
-164 -180 0
c Exactly one constraints for square 4,11 (4 variables)
118 134 149 133 0
-134 -118 0
-149 -118 0
-149 -134 0
-133 -118 0
-133 -134 0
-133 -149 0
c Exactly one constraints for square 3,11 (4 variables)
87 103 118 102 0
-103 -87 0
-118 -87 0
-118 -103 0
-102 -87 0
-102 -103 0
-102 -118 0
c Exactly one constraints for square 2,11 (4 variables)
56 72 87 71 0
-72 -56 0
-87 -56 0
-87 -72 0
-71 -56 0
-71 -72 0
-71 -87 0
c Exactly one constraints for square 1,11 (4 variables)
25 41 56 40 0
-41 -25 0
-56 -25 0
-56 -41 0
-40 -25 0
-40 -41 0
-40 -56 0
c Exactly one constraints for square 0,11 (3 variables)
11 25 10 0
-25 -11 0
-10 -11 0
-10 -25 0
c Exactly one constraints for square 15,12 (3 variables)
460 475 474 0
-475 -460 0
-474 -460 0
-474 -475 0
c Exactly one constraints for square 14,12 (4 variables)
429 445 460 444 0
-445 -429 0
-460 -429 0
-460 -445 0
-444 -429 0
-444 -445 0
-444 -460 0
c Exactly one constraints for square 13,12 (4 variables)
398 414 429 413 0
-414 -398 0
-429 -398 0
-429 -414 0
-413 -398 0
-413 -414 0
-413 -429 0
c Exactly one constraints for square 12,12 (4 variables)
367 383 398 382 0
-383 -367 0
-398 -367 0
-398 -383 0
-382 -367 0
-382 -383 0
-382 -398 0
c Exactly one constraints for square 11,12 (4 variables)
336 352 367 351 0
-352 -336 0
-367 -336 0
-367 -352 0
-351 -336 0
-351 -352 0
-351 -367 0
c Exactly one constraints for square 10,12 (4 variables)
305 321 336 320 0
-321 -305 0
-336 -305 0
-336 -321 0
-320 -305 0
-320 -321 0
-320 -336 0
c Exactly one constraints for square 9,12 (4 variables)
274 290 305 289 0
-290 -274 0
-305 -274 0
-305 -290 0
-289 -274 0
-289 -290 0
-289 -305 0
c Exactly one constraints for square 8,12 (4 variables)
243 259 274 258 0
-259 -243 0
-274 -243 0
-274 -259 0
-258 -243 0
-258 -259 0
-258 -274 0
c Exactly one constraints for square 7,12 (4 variables)
212 228 243 227 0
-228 -212 0
-243 -212 0
-243 -228 0
-227 -212 0
-227 -228 0
-227 -243 0
c Exactly one constraints for square 6,12 (4 variables)
181 197 212 196 0
-197 -181 0
-212 -181 0
-212 -197 0
-196 -181 0
-196 -197 0
-196 -212 0
c Exactly one constraints for square 5,12 (4 variables)
150 166 181 165 0
-166 -150 0
-181 -150 0
-181 -166 0
-165 -150 0
-165 -166 0
-165 -181 0
c Exactly one constraints for square 4,12 (4 variables)
119 135 150 134 0
-135 -119 0
-150 -119 0
-150 -135 0
-134 -119 0
-134 -135 0
-134 -150 0
c Exactly one constraints for square 3,12 (4 variables)
88 104 119 103 0
-104 -88 0
-119 -88 0
-119 -104 0
-103 -88 0
-103 -104 0
-103 -119 0
c Exactly one constraints for square 2,12 (4 variables)
57 73 88 72 0
-73 -57 0
-88 -57 0
-88 -73 0
-72 -57 0
-72 -73 0
-72 -88 0
c Exactly one constraints for square 1,12 (4 variables)
26 42 57 41 0
-42 -26 0
-57 -26 0
-57 -42 0
-41 -26 0
-41 -42 0
-41 -57 0
c Exactly one constraints for square 0,12 (3 variables)
12 26 11 0
-26 -12 0
-11 -12 0
-11 -26 0
c Exactly one constraints for square 15,13 (3 variables)
461 476 475 0
-476 -461 0
-475 -461 0
-475 -476 0
c Exactly one constraints for square 14,13 (4 variables)
430 446 461 445 0
-446 -430 0
-461 -430 0
-461 -446 0
-445 -430 0
-445 -446 0
-445 -461 0
c Exactly one constraints for square 13,13 (4 variables)
399 415 430 414 0
-415 -399 0
-430 -399 0
-430 -415 0
-414 -399 0
-414 -415 0
-414 -430 0
c Exactly one constraints for square 12,13 (4 variables)
368 384 399 383 0
-384 -368 0
-399 -368 0
-399 -384 0
-383 -368 0
-383 -384 0
-383 -399 0
c Exactly one constraints for square 11,13 (4 variables)
337 353 368 352 0
-353 -337 0
-368 -337 0
-368 -353 0
-352 -337 0
-352 -353 0
-352 -368 0
c Exactly one constraints for square 10,13 (4 variables)
306 322 337 321 0
-322 -306 0
-337 -306 0
-337 -322 0
-321 -306 0
-321 -322 0
-321 -337 0
c Exactly one constraints for square 9,13 (4 variables)
275 291 306 290 0
-291 -275 0
-306 -275 0
-306 -291 0
-290 -275 0
-290 -291 0
-290 -306 0
c Exactly one constraints for square 8,13 (4 variables)
244 260 275 259 0
-260 -244 0
-275 -244 0
-275 -260 0
-259 -244 0
-259 -260 0
-259 -275 0
c Exactly one constraints for square 7,13 (4 variables)
213 229 244 228 0
-229 -213 0
-244 -213 0
-244 -229 0
-228 -213 0
-228 -229 0
-228 -244 0
c Exactly one constraints for square 6,13 (4 variables)
182 198 213 197 0
-198 -182 0
-213 -182 0
-213 -198 0
-197 -182 0
-197 -198 0
-197 -213 0
c Exactly one constraints for square 5,13 (4 variables)
151 167 182 166 0
-167 -151 0
-182 -151 0
-182 -167 0
-166 -151 0
-166 -167 0
-166 -182 0
c Exactly one constraints for square 4,13 (4 variables)
120 136 151 135 0
-136 -120 0
-151 -120 0
-151 -136 0
-135 -120 0
-135 -136 0
-135 -151 0
c Exactly one constraints for square 3,13 (4 variables)
89 105 120 104 0
-105 -89 0
-120 -89 0
-120 -105 0
-104 -89 0
-104 -105 0
-104 -120 0
c Exactly one constraints for square 2,13 (4 variables)
58 74 89 73 0
-74 -58 0
-89 -58 0
-89 -74 0
-73 -58 0
-73 -74 0
-73 -89 0
c Exactly one constraints for square 1,13 (4 variables)
27 43 58 42 0
-43 -27 0
-58 -27 0
-58 -43 0
-42 -27 0
-42 -43 0
-42 -58 0
c Exactly one constraints for square 0,13 (3 variables)
13 27 12 0
-27 -13 0
-12 -13 0
-12 -27 0
c Exactly one constraints for square 15,14 (2 variables)
462 476 0
-476 -462 0
c Exactly one constraints for square 14,14 (4 variables)
431 447 462 446 0
-447 -431 0
-462 -431 0
-462 -447 0
-446 -431 0
-446 -447 0
-446 -462 0
c Exactly one constraints for square 13,14 (4 variables)
400 416 431 415 0
-416 -400 0
-431 -400 0
-431 -416 0
-415 -400 0
-415 -416 0
-415 -431 0
c Exactly one constraints for square 12,14 (4 variables)
369 385 400 384 0
-385 -369 0
-400 -369 0
-400 -385 0
-384 -369 0
-384 -385 0
-384 -400 0
c Exactly one constraints for square 11,14 (4 variables)
338 354 369 353 0
-354 -338 0
-369 -338 0
-369 -354 0
-353 -338 0
-353 -354 0
-353 -369 0
c Exactly one constraints for square 10,14 (4 variables)
307 323 338 322 0
-323 -307 0
-338 -307 0
-338 -323 0
-322 -307 0
-322 -323 0
-322 -338 0
c Exactly one constraints for square 9,14 (4 variables)
276 292 307 291 0
-292 -276 0
-307 -276 0
-307 -292 0
-291 -276 0
-291 -292 0
-291 -307 0
c Exactly one constraints for square 8,14 (4 variables)
245 261 276 260 0
-261 -245 0
-276 -245 0
-276 -261 0
-260 -245 0
-260 -261 0
-260 -276 0
c Exactly one constraints for square 7,14 (4 variables)
214 230 245 229 0
-230 -214 0
-245 -214 0
-245 -230 0
-229 -214 0
-229 -230 0
-229 -245 0
c Exactly one constraints for square 6,14 (4 variables)
183 199 214 198 0
-199 -183 0
-214 -183 0
-214 -199 0
-198 -183 0
-198 -199 0
-198 -214 0
c Exactly one constraints for square 5,14 (4 variables)
152 168 183 167 0
-168 -152 0
-183 -152 0
-183 -168 0
-167 -152 0
-167 -168 0
-167 -183 0
c Exactly one constraints for square 4,14 (4 variables)
121 137 152 136 0
-137 -121 0
-152 -121 0
-152 -137 0
-136 -121 0
-136 -137 0
-136 -152 0
c Exactly one constraints for square 3,14 (4 variables)
90 106 121 105 0
-106 -90 0
-121 -90 0
-121 -106 0
-105 -90 0
-105 -106 0
-105 -121 0
c Exactly one constraints for square 2,14 (4 variables)
59 75 90 74 0
-75 -59 0
-90 -59 0
-90 -75 0
-74 -59 0
-74 -75 0
-74 -90 0
c Exactly one constraints for square 1,14 (4 variables)
28 44 59 43 0
-44 -28 0
-59 -28 0
-59 -44 0
-43 -28 0
-43 -44 0
-43 -59 0
c Exactly one constraints for square 0,14 (3 variables)
14 28 13 0
-28 -14 0
-13 -14 0
-13 -28 0
c Exactly one constraints for square 14,15 (2 variables)
432 447 0
-447 -432 0
c Exactly one constraints for square 13,15 (3 variables)
401 432 416 0
-432 -401 0
-416 -401 0
-416 -432 0
c Exactly one constraints for square 12,15 (3 variables)
370 401 385 0
-401 -370 0
-385 -370 0
-385 -401 0
c Exactly one constraints for square 11,15 (3 variables)
339 370 354 0
-370 -339 0
-354 -339 0
-354 -370 0
c Exactly one constraints for square 10,15 (3 variables)
308 339 323 0
-339 -308 0
-323 -308 0
-323 -339 0
c Exactly one constraints for square 9,15 (3 variables)
277 308 292 0
-308 -277 0
-292 -277 0
-292 -308 0
c Exactly one constraints for square 8,15 (3 variables)
246 277 261 0
-277 -246 0
-261 -246 0
-261 -277 0
c Exactly one constraints for square 7,15 (3 variables)
215 246 230 0
-246 -215 0
-230 -215 0
-230 -246 0
c Exactly one constraints for square 6,15 (3 variables)
184 215 199 0
-215 -184 0
-199 -184 0
-199 -215 0
c Exactly one constraints for square 5,15 (3 variables)
153 184 168 0
-184 -153 0
-168 -153 0
-168 -184 0
c Exactly one constraints for square 4,15 (3 variables)
122 153 137 0
-153 -122 0
-137 -122 0
-137 -153 0
c Exactly one constraints for square 3,15 (3 variables)
91 122 106 0
-122 -91 0
-106 -91 0
-106 -122 0
c Exactly one constraints for square 2,15 (3 variables)
60 91 75 0
-91 -60 0
-75 -60 0
-75 -91 0
c Exactly one constraints for square 1,15 (3 variables)
29 60 44 0
-60 -29 0
-44 -29 0
-44 -60 0
c Exactly one constraints for square 0,15 (2 variables)
29 14 0
-14 -29 0
